NAME: A-n45-k7
COMMENT: GVRP 
DIMENSION:  45 
VEHICLES:  4 
GVRP_SETS:  23 
CAPACITY:  100 
NODE_COORD_SECTION 
1 61.000000 99.000000
2 95.000000 7.000000
3 45.000000 87.000000
4 15.000000 47.000000
5 39.000000 75.000000
6 55.000000 23.000000
7 29.000000 71.000000
8 87.000000 79.000000
9 75.000000 63.000000
10 65.000000 61.000000
11 73.000000 35.000000
12 17.000000 35.000000
13 39.000000 99.000000
14 75.000000 77.000000
15 49.000000 37.000000
16 85.000000 31.000000
17 89.000000 71.000000
18 89.000000 43.000000
19 79.000000 81.000000
20 45.000000 5.000000
21 93.000000 69.000000
22 49.000000 69.000000
23 63.000000 25.000000
24 93.000000 33.000000
25 39.000000 45.000000
26 89.000000 33.000000
27 47.000000 77.000000
28 29.000000 19.000000
29 13.000000 65.000000
30 33.000000 9.000000
31 63.000000 9.000000
32 41.000000 13.000000
33 67.000000 75.000000
34 41.000000 27.000000
35 49.000000 77.000000
36 57.000000 81.000000
37 45.000000 5.000000
38 83.000000 7.000000
39 81.000000 61.000000
40 57.000000 81.000000
41 93.000000 89.000000
42 17.000000 13.000000
43 89.000000 27.000000
44 7.000000 25.000000
45 35.000000 35.000000
GVRP_SET_SECTION 
 1 2  38 -1
 2  13 -1
 3  44 -1
 4  21  8  17 -1
 5  15 -1
 6  29 -1
 7  20  32  37 -1
 8  22  27  35 -1
 9  26  16  18  24  43 -1
 10  28  30 -1
 11  14  19  33 -1
 12  41 -1
 13  4  12 -1
 14  10 -1
 15  23  6 -1
 16  7  5 -1
 17  31 -1
 18  11 -1
 19  36  40 -1
 20  39  9 -1
 21  45  25  34 -1
 22  3 -1
 23  42 -1
 DEMAND_SECTION
 1 14 
 2 18 
 3 21 
 4 8 
 5 8 
 6 12 
 7 17 
 8 12 
 9 16 
 10 21 
 11 13 
 12 10 
 13 15 
 14 13 
 15 19 
 16 14 
 17 20 
 18 20 
 19 14 
 20 1 
 21 23 
 22 1 
 23 6 
INTRA_CLUSTER_DISTANCE
10000000000000 10000000000000 10000000000000 10000000000000 10000000000000 10000000000000 10000000000000 10000000000000 10000000000000 10000000000000 10000000000000 10000000000000 10000000000000 10000000000000 10000000000000 10000000000000 10000000000000 10000000000000 10000000000000 10000000000000 10000000000000 10000000000000 10000000000000 10000000000000 10000000000000 10000000000000 10000000000000 10000000000000 10000000000000 10000000000000 10000000000000 10000000000000 10000000000000 10000000000000 10000000000000 10000000000000 10000000000000 10000000000000 10000000000000 10000000000000 10000000000000 10000000000000 10000000000000 10000000000000 10000000000000 
10000000000000 10000000000000 10000000000000 10000000000000 10000000000000 10000000000000 10000000000000 10000000000000 10000000000000 10000000000000 10000000000000 10000000000000 10000000000000 10000000000000 10000000000000 10000000000000 10000000000000 10000000000000 10000000000000 10000000000000 10000000000000 10000000000000 10000000000000 10000000000000 10000000000000 10000000000000 10000000000000 10000000000000 10000000000000 10000000000000 10000000000000 10000000000000 10000000000000 10000000000000 10000000000000 10000000000000 10000000000000 12 10000000000000 10000000000000 10000000000000 10000000000000 10000000000000 10000000000000 10000000000000 
10000000000000 10000000000000 10000000000000 10000000000000 10000000000000 10000000000000 10000000000000 10000000000000 10000000000000 10000000000000 10000000000000 10000000000000 10000000000000 10000000000000 10000000000000 10000000000000 10000000000000 10000000000000 10000000000000 10000000000000 10000000000000 10000000000000 10000000000000 10000000000000 10000000000000 10000000000000 10000000000000 10000000000000 10000000000000 10000000000000 10000000000000 10000000000000 10000000000000 10000000000000 10000000000000 10000000000000 10000000000000 10000000000000 10000000000000 10000000000000 10000000000000 10000000000000 10000000000000 10000000000000 10000000000000 
10000000000000 10000000000000 10000000000000 10000000000000 10000000000000 10000000000000 10000000000000 10000000000000 10000000000000 10000000000000 10000000000000 12 10000000000000 10000000000000 10000000000000 10000000000000 10000000000000 10000000000000 10000000000000 10000000000000 10000000000000 10000000000000 10000000000000 10000000000000 10000000000000 10000000000000 10000000000000 10000000000000 10000000000000 10000000000000 10000000000000 10000000000000 10000000000000 10000000000000 10000000000000 10000000000000 10000000000000 10000000000000 10000000000000 10000000000000 10000000000000 10000000000000 10000000000000 10000000000000 10000000000000 
10000000000000 10000000000000 10000000000000 10000000000000 10000000000000 10000000000000 11 10000000000000 10000000000000 10000000000000 10000000000000 10000000000000 10000000000000 10000000000000 10000000000000 10000000000000 10000000000000 10000000000000 10000000000000 10000000000000 10000000000000 10000000000000 10000000000000 10000000000000 10000000000000 10000000000000 10000000000000 10000000000000 10000000000000 10000000000000 10000000000000 10000000000000 10000000000000 10000000000000 10000000000000 10000000000000 10000000000000 10000000000000 10000000000000 10000000000000 10000000000000 10000000000000 10000000000000 10000000000000 10000000000000 
10000000000000 10000000000000 10000000000000 10000000000000 10000000000000 10000000000000 10000000000000 10000000000000 10000000000000 10000000000000 10000000000000 10000000000000 10000000000000 10000000000000 10000000000000 10000000000000 10000000000000 10000000000000 10000000000000 10000000000000 10000000000000 10000000000000 8 10000000000000 10000000000000 10000000000000 10000000000000 10000000000000 10000000000000 10000000000000 10000000000000 10000000000000 10000000000000 10000000000000 10000000000000 10000000000000 10000000000000 10000000000000 10000000000000 10000000000000 10000000000000 10000000000000 10000000000000 10000000000000 10000000000000 
10000000000000 10000000000000 10000000000000 10000000000000 11 10000000000000 10000000000000 10000000000000 10000000000000 10000000000000 10000000000000 10000000000000 10000000000000 10000000000000 10000000000000 10000000000000 10000000000000 10000000000000 10000000000000 10000000000000 10000000000000 10000000000000 10000000000000 10000000000000 10000000000000 10000000000000 10000000000000 10000000000000 10000000000000 10000000000000 10000000000000 10000000000000 10000000000000 10000000000000 10000000000000 10000000000000 10000000000000 10000000000000 10000000000000 10000000000000 10000000000000 10000000000000 10000000000000 10000000000000 10000000000000 
10000000000000 10000000000000 10000000000000 10000000000000 10000000000000 10000000000000 10000000000000 10000000000000 10000000000000 10000000000000 10000000000000 10000000000000 10000000000000 10000000000000 10000000000000 10000000000000 16 10000000000000 10000000000000 10000000000000 12 10000000000000 10000000000000 10000000000000 10000000000000 10000000000000 10000000000000 10000000000000 10000000000000 10000000000000 10000000000000 10000000000000 10000000000000 10000000000000 10000000000000 10000000000000 10000000000000 10000000000000 10000000000000 10000000000000 10000000000000 10000000000000 10000000000000 10000000000000 10000000000000 
10000000000000 10000000000000 10000000000000 10000000000000 10000000000000 10000000000000 10000000000000 10000000000000 10000000000000 10000000000000 10000000000000 10000000000000 10000000000000 10000000000000 10000000000000 10000000000000 10000000000000 10000000000000 10000000000000 10000000000000 10000000000000 10000000000000 10000000000000 10000000000000 10000000000000 10000000000000 10000000000000 10000000000000 10000000000000 10000000000000 10000000000000 10000000000000 10000000000000 10000000000000 10000000000000 10000000000000 10000000000000 10000000000000 6 10000000000000 10000000000000 10000000000000 10000000000000 10000000000000 10000000000000 
10000000000000 10000000000000 10000000000000 10000000000000 10000000000000 10000000000000 10000000000000 10000000000000 10000000000000 10000000000000 10000000000000 10000000000000 10000000000000 10000000000000 10000000000000 10000000000000 10000000000000 10000000000000 10000000000000 10000000000000 10000000000000 10000000000000 10000000000000 10000000000000 10000000000000 10000000000000 10000000000000 10000000000000 10000000000000 10000000000000 10000000000000 10000000000000 10000000000000 10000000000000 10000000000000 10000000000000 10000000000000 10000000000000 10000000000000 10000000000000 10000000000000 10000000000000 10000000000000 10000000000000 10000000000000 
10000000000000 10000000000000 10000000000000 10000000000000 10000000000000 10000000000000 10000000000000 10000000000000 10000000000000 10000000000000 10000000000000 10000000000000 10000000000000 10000000000000 10000000000000 10000000000000 10000000000000 10000000000000 10000000000000 10000000000000 10000000000000 10000000000000 10000000000000 10000000000000 10000000000000 10000000000000 10000000000000 10000000000000 10000000000000 10000000000000 10000000000000 10000000000000 10000000000000 10000000000000 10000000000000 10000000000000 10000000000000 10000000000000 10000000000000 10000000000000 10000000000000 10000000000000 10000000000000 10000000000000 10000000000000 
10000000000000 10000000000000 10000000000000 12 10000000000000 10000000000000 10000000000000 10000000000000 10000000000000 10000000000000 10000000000000 10000000000000 10000000000000 10000000000000 10000000000000 10000000000000 10000000000000 10000000000000 10000000000000 10000000000000 10000000000000 10000000000000 10000000000000 10000000000000 10000000000000 10000000000000 10000000000000 10000000000000 10000000000000 10000000000000 10000000000000 10000000000000 10000000000000 10000000000000 10000000000000 10000000000000 10000000000000 10000000000000 10000000000000 10000000000000 10000000000000 10000000000000 10000000000000 10000000000000 10000000000000 
10000000000000 10000000000000 10000000000000 10000000000000 10000000000000 10000000000000 10000000000000 10000000000000 10000000000000 10000000000000 10000000000000 10000000000000 10000000000000 10000000000000 10000000000000 10000000000000 10000000000000 10000000000000 10000000000000 10000000000000 10000000000000 10000000000000 10000000000000 10000000000000 10000000000000 10000000000000 10000000000000 10000000000000 10000000000000 10000000000000 10000000000000 10000000000000 10000000000000 10000000000000 10000000000000 10000000000000 10000000000000 10000000000000 10000000000000 10000000000000 10000000000000 10000000000000 10000000000000 10000000000000 10000000000000 
10000000000000 10000000000000 10000000000000 10000000000000 10000000000000 10000000000000 10000000000000 10000000000000 10000000000000 10000000000000 10000000000000 10000000000000 10000000000000 10000000000000 10000000000000 10000000000000 10000000000000 10000000000000 21 10000000000000 10000000000000 10000000000000 10000000000000 10000000000000 10000000000000 10000000000000 10000000000000 10000000000000 10000000000000 10000000000000 10000000000000 10000000000000 19 10000000000000 10000000000000 10000000000000 10000000000000 10000000000000 10000000000000 10000000000000 10000000000000 10000000000000 10000000000000 10000000000000 10000000000000 
10000000000000 10000000000000 10000000000000 10000000000000 10000000000000 10000000000000 10000000000000 10000000000000 10000000000000 10000000000000 10000000000000 10000000000000 10000000000000 10000000000000 10000000000000 10000000000000 10000000000000 10000000000000 10000000000000 10000000000000 10000000000000 10000000000000 10000000000000 10000000000000 10000000000000 10000000000000 10000000000000 10000000000000 10000000000000 10000000000000 10000000000000 10000000000000 10000000000000 10000000000000 10000000000000 10000000000000 10000000000000 10000000000000 10000000000000 10000000000000 10000000000000 10000000000000 10000000000000 10000000000000 10000000000000 
10000000000000 10000000000000 10000000000000 10000000000000 10000000000000 10000000000000 10000000000000 10000000000000 10000000000000 10000000000000 10000000000000 10000000000000 10000000000000 10000000000000 10000000000000 10000000000000 10000000000000 27 10000000000000 10000000000000 10000000000000 10000000000000 10000000000000 33 10000000000000 34 10000000000000 10000000000000 10000000000000 10000000000000 10000000000000 10000000000000 10000000000000 10000000000000 10000000000000 10000000000000 10000000000000 10000000000000 10000000000000 10000000000000 10000000000000 10000000000000 32 10000000000000 10000000000000 
10000000000000 10000000000000 10000000000000 10000000000000 10000000000000 10000000000000 10000000000000 16 10000000000000 10000000000000 10000000000000 10000000000000 10000000000000 10000000000000 10000000000000 10000000000000 10000000000000 10000000000000 10000000000000 10000000000000 20 10000000000000 10000000000000 10000000000000 10000000000000 10000000000000 10000000000000 10000000000000 10000000000000 10000000000000 10000000000000 10000000000000 10000000000000 10000000000000 10000000000000 10000000000000 10000000000000 10000000000000 10000000000000 10000000000000 10000000000000 10000000000000 10000000000000 10000000000000 10000000000000 
10000000000000 10000000000000 10000000000000 10000000000000 10000000000000 10000000000000 10000000000000 10000000000000 10000000000000 10000000000000 10000000000000 10000000000000 10000000000000 10000000000000 10000000000000 27 10000000000000 10000000000000 10000000000000 10000000000000 10000000000000 10000000000000 10000000000000 27 10000000000000 28 10000000000000 10000000000000 10000000000000 10000000000000 10000000000000 10000000000000 10000000000000 10000000000000 10000000000000 10000000000000 10000000000000 10000000000000 10000000000000 10000000000000 10000000000000 10000000000000 25 10000000000000 10000000000000 
10000000000000 10000000000000 10000000000000 10000000000000 10000000000000 10000000000000 10000000000000 10000000000000 10000000000000 10000000000000 10000000000000 10000000000000 10000000000000 21 10000000000000 10000000000000 10000000000000 10000000000000 10000000000000 10000000000000 10000000000000 10000000000000 10000000000000 10000000000000 10000000000000 10000000000000 10000000000000 10000000000000 10000000000000 10000000000000 10000000000000 10000000000000 14 10000000000000 10000000000000 10000000000000 10000000000000 10000000000000 10000000000000 10000000000000 10000000000000 10000000000000 10000000000000 10000000000000 10000000000000 
10000000000000 10000000000000 10000000000000 10000000000000 10000000000000 10000000000000 10000000000000 10000000000000 10000000000000 10000000000000 10000000000000 10000000000000 10000000000000 10000000000000 10000000000000 10000000000000 10000000000000 10000000000000 10000000000000 10000000000000 10000000000000 10000000000000 10000000000000 10000000000000 10000000000000 10000000000000 10000000000000 10000000000000 10000000000000 10000000000000 10000000000000 9 10000000000000 10000000000000 10000000000000 10000000000000 18 10000000000000 10000000000000 10000000000000 10000000000000 10000000000000 10000000000000 10000000000000 10000000000000 
10000000000000 10000000000000 10000000000000 10000000000000 10000000000000 10000000000000 10000000000000 12 10000000000000 10000000000000 10000000000000 10000000000000 10000000000000 10000000000000 10000000000000 10000000000000 20 10000000000000 10000000000000 10000000000000 10000000000000 10000000000000 10000000000000 10000000000000 10000000000000 10000000000000 10000000000000 10000000000000 10000000000000 10000000000000 10000000000000 10000000000000 10000000000000 10000000000000 10000000000000 10000000000000 10000000000000 10000000000000 10000000000000 10000000000000 10000000000000 10000000000000 10000000000000 10000000000000 10000000000000 
10000000000000 10000000000000 10000000000000 10000000000000 10000000000000 10000000000000 10000000000000 10000000000000 10000000000000 10000000000000 10000000000000 10000000000000 10000000000000 10000000000000 10000000000000 10000000000000 10000000000000 10000000000000 10000000000000 10000000000000 10000000000000 10000000000000 10000000000000 10000000000000 10000000000000 10000000000000 10 10000000000000 10000000000000 10000000000000 10000000000000 10000000000000 10000000000000 10000000000000 10 10000000000000 10000000000000 10000000000000 10000000000000 10000000000000 10000000000000 10000000000000 10000000000000 10000000000000 10000000000000 
10000000000000 10000000000000 10000000000000 10000000000000 10000000000000 8 10000000000000 10000000000000 10000000000000 10000000000000 10000000000000 10000000000000 10000000000000 10000000000000 10000000000000 10000000000000 10000000000000 10000000000000 10000000000000 10000000000000 10000000000000 10000000000000 10000000000000 10000000000000 10000000000000 10000000000000 10000000000000 10000000000000 10000000000000 10000000000000 10000000000000 10000000000000 10000000000000 10000000000000 10000000000000 10000000000000 10000000000000 10000000000000 10000000000000 10000000000000 10000000000000 10000000000000 10000000000000 10000000000000 10000000000000 
10000000000000 10000000000000 10000000000000 10000000000000 10000000000000 10000000000000 10000000000000 10000000000000 10000000000000 10000000000000 10000000000000 10000000000000 10000000000000 10000000000000 10000000000000 33 10000000000000 27 10000000000000 10000000000000 10000000000000 10000000000000 10000000000000 10000000000000 10000000000000 36 10000000000000 10000000000000 10000000000000 10000000000000 10000000000000 10000000000000 10000000000000 10000000000000 10000000000000 10000000000000 10000000000000 10000000000000 10000000000000 10000000000000 10000000000000 10000000000000 31 10000000000000 10000000000000 
10000000000000 10000000000000 10000000000000 10000000000000 10000000000000 10000000000000 10000000000000 10000000000000 10000000000000 10000000000000 10000000000000 10000000000000 10000000000000 10000000000000 10000000000000 10000000000000 10000000000000 10000000000000 10000000000000 10000000000000 10000000000000 10000000000000 10000000000000 10000000000000 10000000000000 10000000000000 10000000000000 10000000000000 10000000000000 10000000000000 10000000000000 10000000000000 10000000000000 21 10000000000000 10000000000000 10000000000000 10000000000000 10000000000000 10000000000000 10000000000000 10000000000000 10000000000000 10000000000000 28 
10000000000000 10000000000000 10000000000000 10000000000000 10000000000000 10000000000000 10000000000000 10000000000000 10000000000000 10000000000000 10000000000000 10000000000000 10000000000000 10000000000000 10000000000000 34 10000000000000 28 10000000000000 10000000000000 10000000000000 10000000000000 10000000000000 36 10000000000000 10000000000000 10000000000000 10000000000000 10000000000000 10000000000000 10000000000000 10000000000000 10000000000000 10000000000000 10000000000000 10000000000000 10000000000000 10000000000000 10000000000000 10000000000000 10000000000000 10000000000000 34 10000000000000 10000000000000 
10000000000000 10000000000000 10000000000000 10000000000000 10000000000000 10000000000000 10000000000000 10000000000000 10000000000000 10000000000000 10000000000000 10000000000000 10000000000000 10000000000000 10000000000000 10000000000000 10000000000000 10000000000000 10000000000000 10000000000000 10000000000000 10 10000000000000 10000000000000 10000000000000 10000000000000 10000000000000 10000000000000 10000000000000 10000000000000 10000000000000 10000000000000 10000000000000 10000000000000 16 10000000000000 10000000000000 10000000000000 10000000000000 10000000000000 10000000000000 10000000000000 10000000000000 10000000000000 10000000000000 
10000000000000 10000000000000 10000000000000 10000000000000 10000000000000 10000000000000 10000000000000 10000000000000 10000000000000 10000000000000 10000000000000 10000000000000 10000000000000 10000000000000 10000000000000 10000000000000 10000000000000 10000000000000 10000000000000 10000000000000 10000000000000 10000000000000 10000000000000 10000000000000 10000000000000 10000000000000 10000000000000 10000000000000 10000000000000 11 10000000000000 10000000000000 10000000000000 10000000000000 10000000000000 10000000000000 10000000000000 10000000000000 10000000000000 10000000000000 10000000000000 10000000000000 10000000000000 10000000000000 10000000000000 
10000000000000 10000000000000 10000000000000 10000000000000 10000000000000 10000000000000 10000000000000 10000000000000 10000000000000 10000000000000 10000000000000 10000000000000 10000000000000 10000000000000 10000000000000 10000000000000 10000000000000 10000000000000 10000000000000 10000000000000 10000000000000 10000000000000 10000000000000 10000000000000 10000000000000 10000000000000 10000000000000 10000000000000 10000000000000 10000000000000 10000000000000 10000000000000 10000000000000 10000000000000 10000000000000 10000000000000 10000000000000 10000000000000 10000000000000 10000000000000 10000000000000 10000000000000 10000000000000 10000000000000 10000000000000 
10000000000000 10000000000000 10000000000000 10000000000000 10000000000000 10000000000000 10000000000000 10000000000000 10000000000000 10000000000000 10000000000000 10000000000000 10000000000000 10000000000000 10000000000000 10000000000000 10000000000000 10000000000000 10000000000000 10000000000000 10000000000000 10000000000000 10000000000000 10000000000000 10000000000000 10000000000000 10000000000000 11 10000000000000 10000000000000 10000000000000 10000000000000 10000000000000 10000000000000 10000000000000 10000000000000 10000000000000 10000000000000 10000000000000 10000000000000 10000000000000 10000000000000 10000000000000 10000000000000 10000000000000 
10000000000000 10000000000000 10000000000000 10000000000000 10000000000000 10000000000000 10000000000000 10000000000000 10000000000000 10000000000000 10000000000000 10000000000000 10000000000000 10000000000000 10000000000000 10000000000000 10000000000000 10000000000000 10000000000000 10000000000000 10000000000000 10000000000000 10000000000000 10000000000000 10000000000000 10000000000000 10000000000000 10000000000000 10000000000000 10000000000000 10000000000000 10000000000000 10000000000000 10000000000000 10000000000000 10000000000000 10000000000000 10000000000000 10000000000000 10000000000000 10000000000000 10000000000000 10000000000000 10000000000000 10000000000000 
10000000000000 10000000000000 10000000000000 10000000000000 10000000000000 10000000000000 10000000000000 10000000000000 10000000000000 10000000000000 10000000000000 10000000000000 10000000000000 10000000000000 10000000000000 10000000000000 10000000000000 10000000000000 10000000000000 9 10000000000000 10000000000000 10000000000000 10000000000000 10000000000000 10000000000000 10000000000000 10000000000000 10000000000000 10000000000000 10000000000000 10000000000000 10000000000000 10000000000000 10000000000000 10000000000000 9 10000000000000 10000000000000 10000000000000 10000000000000 10000000000000 10000000000000 10000000000000 10000000000000 
10000000000000 10000000000000 10000000000000 10000000000000 10000000000000 10000000000000 10000000000000 10000000000000 10000000000000 10000000000000 10000000000000 10000000000000 10000000000000 19 10000000000000 10000000000000 10000000000000 10000000000000 14 10000000000000 10000000000000 10000000000000 10000000000000 10000000000000 10000000000000 10000000000000 10000000000000 10000000000000 10000000000000 10000000000000 10000000000000 10000000000000 10000000000000 10000000000000 10000000000000 10000000000000 10000000000000 10000000000000 10000000000000 10000000000000 10000000000000 10000000000000 10000000000000 10000000000000 10000000000000 
10000000000000 10000000000000 10000000000000 10000000000000 10000000000000 10000000000000 10000000000000 10000000000000 10000000000000 10000000000000 10000000000000 10000000000000 10000000000000 10000000000000 10000000000000 10000000000000 10000000000000 10000000000000 10000000000000 10000000000000 10000000000000 10000000000000 10000000000000 10000000000000 21 10000000000000 10000000000000 10000000000000 10000000000000 10000000000000 10000000000000 10000000000000 10000000000000 10000000000000 10000000000000 10000000000000 10000000000000 10000000000000 10000000000000 10000000000000 10000000000000 10000000000000 10000000000000 10000000000000 29 
10000000000000 10000000000000 10000000000000 10000000000000 10000000000000 10000000000000 10000000000000 10000000000000 10000000000000 10000000000000 10000000000000 10000000000000 10000000000000 10000000000000 10000000000000 10000000000000 10000000000000 10000000000000 10000000000000 10000000000000 10000000000000 10 10000000000000 10000000000000 10000000000000 10000000000000 16 10000000000000 10000000000000 10000000000000 10000000000000 10000000000000 10000000000000 10000000000000 10000000000000 10000000000000 10000000000000 10000000000000 10000000000000 10000000000000 10000000000000 10000000000000 10000000000000 10000000000000 10000000000000 
10000000000000 10000000000000 10000000000000 10000000000000 10000000000000 10000000000000 10000000000000 10000000000000 10000000000000 10000000000000 10000000000000 10000000000000 10000000000000 10000000000000 10000000000000 10000000000000 10000000000000 10000000000000 10000000000000 10000000000000 10000000000000 10000000000000 10000000000000 10000000000000 10000000000000 10000000000000 10000000000000 10000000000000 10000000000000 10000000000000 10000000000000 10000000000000 10000000000000 10000000000000 10000000000000 10000000000000 10000000000000 10000000000000 10000000000000 0 10000000000000 10000000000000 10000000000000 10000000000000 10000000000000 
10000000000000 10000000000000 10000000000000 10000000000000 10000000000000 10000000000000 10000000000000 10000000000000 10000000000000 10000000000000 10000000000000 10000000000000 10000000000000 10000000000000 10000000000000 10000000000000 10000000000000 10000000000000 10000000000000 18 10000000000000 10000000000000 10000000000000 10000000000000 10000000000000 10000000000000 10000000000000 10000000000000 10000000000000 10000000000000 10000000000000 9 10000000000000 10000000000000 10000000000000 10000000000000 10000000000000 10000000000000 10000000000000 10000000000000 10000000000000 10000000000000 10000000000000 10000000000000 10000000000000 
10000000000000 12 10000000000000 10000000000000 10000000000000 10000000000000 10000000000000 10000000000000 10000000000000 10000000000000 10000000000000 10000000000000 10000000000000 10000000000000 10000000000000 10000000000000 10000000000000 10000000000000 10000000000000 10000000000000 10000000000000 10000000000000 10000000000000 10000000000000 10000000000000 10000000000000 10000000000000 10000000000000 10000000000000 10000000000000 10000000000000 10000000000000 10000000000000 10000000000000 10000000000000 10000000000000 10000000000000 10000000000000 10000000000000 10000000000000 10000000000000 10000000000000 10000000000000 10000000000000 10000000000000 
10000000000000 10000000000000 10000000000000 10000000000000 10000000000000 10000000000000 10000000000000 10000000000000 6 10000000000000 10000000000000 10000000000000 10000000000000 10000000000000 10000000000000 10000000000000 10000000000000 10000000000000 10000000000000 10000000000000 10000000000000 10000000000000 10000000000000 10000000000000 10000000000000 10000000000000 10000000000000 10000000000000 10000000000000 10000000000000 10000000000000 10000000000000 10000000000000 10000000000000 10000000000000 10000000000000 10000000000000 10000000000000 10000000000000 10000000000000 10000000000000 10000000000000 10000000000000 10000000000000 10000000000000 
10000000000000 10000000000000 10000000000000 10000000000000 10000000000000 10000000000000 10000000000000 10000000000000 10000000000000 10000000000000 10000000000000 10000000000000 10000000000000 10000000000000 10000000000000 10000000000000 10000000000000 10000000000000 10000000000000 10000000000000 10000000000000 10000000000000 10000000000000 10000000000000 10000000000000 10000000000000 10000000000000 10000000000000 10000000000000 10000000000000 10000000000000 10000000000000 10000000000000 10000000000000 10000000000000 0 10000000000000 10000000000000 10000000000000 10000000000000 10000000000000 10000000000000 10000000000000 10000000000000 10000000000000 
10000000000000 10000000000000 10000000000000 10000000000000 10000000000000 10000000000000 10000000000000 10000000000000 10000000000000 10000000000000 10000000000000 10000000000000 10000000000000 10000000000000 10000000000000 10000000000000 10000000000000 10000000000000 10000000000000 10000000000000 10000000000000 10000000000000 10000000000000 10000000000000 10000000000000 10000000000000 10000000000000 10000000000000 10000000000000 10000000000000 10000000000000 10000000000000 10000000000000 10000000000000 10000000000000 10000000000000 10000000000000 10000000000000 10000000000000 10000000000000 10000000000000 10000000000000 10000000000000 10000000000000 10000000000000 
10000000000000 10000000000000 10000000000000 10000000000000 10000000000000 10000000000000 10000000000000 10000000000000 10000000000000 10000000000000 10000000000000 10000000000000 10000000000000 10000000000000 10000000000000 10000000000000 10000000000000 10000000000000 10000000000000 10000000000000 10000000000000 10000000000000 10000000000000 10000000000000 10000000000000 10000000000000 10000000000000 10000000000000 10000000000000 10000000000000 10000000000000 10000000000000 10000000000000 10000000000000 10000000000000 10000000000000 10000000000000 10000000000000 10000000000000 10000000000000 10000000000000 10000000000000 10000000000000 10000000000000 10000000000000 
10000000000000 10000000000000 10000000000000 10000000000000 10000000000000 10000000000000 10000000000000 10000000000000 10000000000000 10000000000000 10000000000000 10000000000000 10000000000000 10000000000000 10000000000000 32 10000000000000 25 10000000000000 10000000000000 10000000000000 10000000000000 10000000000000 31 10000000000000 34 10000000000000 10000000000000 10000000000000 10000000000000 10000000000000 10000000000000 10000000000000 10000000000000 10000000000000 10000000000000 10000000000000 10000000000000 10000000000000 10000000000000 10000000000000 10000000000000 10000000000000 10000000000000 10000000000000 
10000000000000 10000000000000 10000000000000 10000000000000 10000000000000 10000000000000 10000000000000 10000000000000 10000000000000 10000000000000 10000000000000 10000000000000 10000000000000 10000000000000 10000000000000 10000000000000 10000000000000 10000000000000 10000000000000 10000000000000 10000000000000 10000000000000 10000000000000 10000000000000 10000000000000 10000000000000 10000000000000 10000000000000 10000000000000 10000000000000 10000000000000 10000000000000 10000000000000 10000000000000 10000000000000 10000000000000 10000000000000 10000000000000 10000000000000 10000000000000 10000000000000 10000000000000 10000000000000 10000000000000 10000000000000 
10000000000000 10000000000000 10000000000000 10000000000000 10000000000000 10000000000000 10000000000000 10000000000000 10000000000000 10000000000000 10000000000000 10000000000000 10000000000000 10000000000000 10000000000000 10000000000000 10000000000000 10000000000000 10000000000000 10000000000000 10000000000000 10000000000000 10000000000000 10000000000000 28 10000000000000 10000000000000 10000000000000 10000000000000 10000000000000 10000000000000 10000000000000 10000000000000 29 10000000000000 10000000000000 10000000000000 10000000000000 10000000000000 10000000000000 10000000000000 10000000000000 10000000000000 10000000000000 10000000000000 
EOF
